c 1 CONFIG_LS
c 2 CONFIG_SORT_BIG
c 3 CONFIG_DHCPD
c 4 CONFIG_HELP
c 5 CONFIG_CHCON
c 6 CONFIG_SYSLOGD
c 7 CONFIG_TIME
c 8 CONFIG_W
c 9 CONFIG_TAIL
c 10 CONFIG_KLOGD_SOURCE_RING_BUFFER
c 11 CONFIG_SULOGIN
c 12 CONFIG_FGREP
c 13 CONFIG_MDEV_CONF
c 14 CONFIG_LOAD_POLICY
c 15 CONFIG_UNSHARE
c 16 CONFIG_SLEEP_FLOAT
c 17 CONFIG_TOYBOX_UID_SYS
c 18 CONFIG_EGREP
c 19 CONFIG_ID
c 20 CONFIG_SETENFORCE
c 21 CONFIG_RESTORECON
c 22 CONFIG_HELP_EXTRAS
c 23 CONFIG_LOGIN
c 24 CONFIG_KILL
c 25 CONFIG_FSFREEZE
c 26 CONFIG_GREP
c 27 CONFIG_TOYBOX_ICONV
c 28 CONFIG_XARGS_PEDANTIC
c 29 CONFIG_CP_MORE
c 30 CONFIG_GZIP
c 31 CONFIG_MKE2FS_EXTENDED
c 32 CONFIG_WHO
c 33 CONFIG_TOYBOX_FIFREEZE
c 34 CONFIG_CP
c 35 CONFIG_LS_COLOR
c 36 CONFIG_TAIL_SEEK
c 37 CONFIG_RUNCON
c 38 CONFIG_LSPCI_TEXT
c 39 CONFIG_TOYBOX_LSM_NONE
c 40 CONFIG_XARGS
c 41 CONFIG_MKE2FS_GEN
c 42 CONFIG_CAT
c 43 CONFIG_TOYBOX_SHADOW
c 44 CONFIG_TOYBOX_SELINUX
c 45 CONFIG_KLOGD
c 46 CONFIG_MKE2FS
c 47 CONFIG_LSPCI
c 48 CONFIG_GZIP_D
c 49 CONFIG_ICONV
c 50 CONFIG_GETENFORCE
c 51 CONFIG_TOYBOX_FLOAT
c 52 CONFIG_TOYBOX_HELP
c 53 CONFIG_PASSWD
c 54 CONFIG_GUNZIP
c 55 CONFIG_FALLOCATE
c 56 CONFIG_TOYBOX_UID_USR
c 57 CONFIG_TOYBOX_CONTAINER
c 58 CONFIG_NETCAT_LISTEN
c 59 CONFIG_MKE2FS_LABEL
c 60 CONFIG_SEQ
c 61 CONFIG_MV_MORE
c 62 CONFIG_SORT_FLOAT
c 63 CONFIG_DECOMPRESS
c 64 CONFIG_SU
c 65 CONFIG_SORT
c 66 CONFIG_CD
c 67 CONFIG_ZCAT
c 68 CONFIG_TIMEOUT
c 69 CONFIG_LOGGER
c 70 CONFIG_ID_SELINUX
c 71 CONFIG_EXIT
c 72 CONFIG_NETCAT
c 73 CONFIG_MV
c 74 CONFIG_UPTIME
c 75 CONFIG_INSTALL
c 76 CONFIG_TOYBOX_SMACK
c 77 CONFIG_TOYBOX
c 78 CONFIG_MKE2FS_JOURNAL
c 79 CONFIG_TOYBOX_UTMPX
c 80 CONFIG_SLEEP
c 81 CONFIG_CAT_V
c 82 CONFIG_DEBUG_DHCP
c 83 CONFIG_TOYBOX_FALLOCATE
c 84 CONFIG_COMPRESS
c 85 CONFIG_KILLALL5
c 86 CONFIG_MDEV
c 87 CONFIG_TOYBOX_HELP_DASHDASH
c 88 __Root__
p cnf 88 171
88 0
88 -77 0
88 -12 0
88 -26 0
88 -34 0
88 -29 0
88 -44 0
88 -39 0
88 -76 0
88 -43 0
88 -64 0
88 -23 0
88 -45 0
88 -10 0
88 -68 0
88 -51 0
88 -79 0
88 -54 0
88 -63 0
88 -18 0
88 -37 0
88 -46 0
88 -78 0
88 -81 0
88 -42 0
88 -1 0
88 -35 0
88 -50 0
88 -73 0
88 -61 0
88 -56 0
88 -74 0
88 -53 0
88 -30 0
88 -48 0
88 -59 0
88 -27 0
88 -32 0
88 -7 0
88 -49 0
88 -2 0
88 -62 0
88 -17 0
88 -66 0
88 -3 0
88 -82 0
88 -75 0
88 -5 0
88 -72 0
88 -58 0
88 -22 0
88 -4 0
88 -70 0
88 -83 0
88 -55 0
88 -52 0
88 -87 0
88 -38 0
88 -47 0
88 -65 0
88 -84 0
88 -19 0
88 -80 0
88 -16 0
88 -67 0
88 -8 0
88 -40 0
88 -28 0
88 -69 0
88 -6 0
88 -57 0
88 -25 0
88 -33 0
88 -24 0
88 -85 0
88 -11 0
88 -15 0
88 -71 0
88 -20 0
88 -13 0
88 -86 0
88 -21 0
88 -60 0
88 -41 0
88 -9 0
88 -36 0
88 -31 0
88 -14 0
77 0
12 -26 0
34 -29 0
44 39 76 0
43 -64 0
43 -23 0
45 -10 0
-68 51 0
79 0
-54 63 0
18 -26 0
-37 44 0
46 -78 0
-81 42 0
1 -35 0
44 -50 0
73 -61 0
56 0
-74 79 0
43 -53 0
30 -48 0
46 -59 0
27 0
-32 79 0
51 -7 0
-49 27 0
63 -48 0
29 -61 0
-44 -39 0
-51 -2 62 0
17 0
-66 0
3 -82 0
34 29 -75 0
44 -5 0
-44 -76 0
72 -58 0
2 -62 0
77 -22 4 0
-70 44 0
83 -55 0
52 -87 0
-38 47 0
-2 65 0
-39 -76 0
-73 34 0
-30 84 0
52 -4 0
-70 19 0
70 -19 -44 0
-51 -80 16 0
63 -67 0
83 0
-8 79 0
77 -22 0
51 -62 0
40 -28 0
-30 -63 48 0
-12 26 0
-69 6 0
57 0
29 -75 0
-25 33 0
34 -75 0
24 -85 0
43 -11 0
-15 57 0
-71 0
44 -20 0
-13 86 0
51 -16 0
80 -16 0
-22 4 0
-18 26 0
-73 -29 61 0
44 -21 0
-60 51 0
33 0
46 -41 0
43 0
9 -36 0
-31 46 0
-14 44 0
